100 8
196 146
254 250
959 741
461 855
177 334
464 604
880 749
904 761
87 260
862 744
413 539
664 477
514 284
344 278
618 205
276 773
485 610
888 634
716 287
264 232
243 201
217 173
928 454
250 567
192 580
862 469
673 531
319 164
140 153
878 584
656 454
390 621
132 622
137 265
400 523
541 186
950 324
842 726
127 523
222 204
133 253
372 533
823 719
349 474
771 373
595 130
882 384
372 497
166 621
724 196
150 232
118 90
159 646
881 746
865 716
551 286
199 96
754 367
514 354
329 274
252 613
250 390
231 583
157 222
278 800
658 529
875 305
294 727
860 318
551 302
281 743
608 99
100 87
674 699
484 654
818 351
408 721
491 135
738 365
93 308
642 205
329 325
295 658
670 239
522 537
902 749
445 724
169 154
265 147
552 128
155 120
683 580
652 637
944 463
391 489
516 325
946 670
101 249
813 431
873 729
